proyfinal/src/viki/013/experimentInOfficeAgust.take6.output/e03e9ce6-41b4-4a83-937b-91f64818df4f.als.dat
{'cnf.clauses': '118081',
 'cnf.totvars': '69608',
 'conflict literals': '6',
 'conflicts': '6',
 'decisions': '5589',
 'memused.mb': '15.89',
 'outcome': 'UNSAT',
 'propagations': '30370',
 'restarts': '1',
 'solver.msecs': 34,
 'task.msecs': 91}
