proyfinal/src/viki/013/experimentInOfficeAgust.take6.output/e03e9ce6-41b4-4a83-937b-91f64818df4f.als.out
Reading from standard input... Use '--help' for help.
============================[ Problem Statistics ]=============================
|                                                                             |
|  Number of variables:         69608                                         |
|  Number of clauses:          118081                                         |
|  Parse time:                   0.03 s                                       |
|                                                                             |
============================[ Search Statistics ]==============================
| Conflicts |          ORIGINAL         |          LEARNT          | Progress |
|           |    Vars  Clauses Literals |    Limit  Clauses Lit/Cl |          |
===============================================================================
===============================================================================
restarts              : 1
conflicts             : 6              (175 /sec)
decisions             : 5589           (0.00 % random) (162726 /sec)
propagations          : 30370          (884237 /sec)
conflict literals     : 6              (0.00 % deleted)
Memory used           : 15.89 MB
CPU time              : 0.034346 s

UNSATISFIABLE
